(declare-fun _for_it_11 () Int)
(declare-fun kfdia () Int)
(declare-fun kidia () Int)
(declare-fun klev () Int)

(assert (forall ((_if_cond_1_val (Array Int Int)))
  (and
    (forall ((_for_it_12_0 Int) (_for_it_12_1 Int))
      (or
        (not (<= _for_it_12_1 (+ kfdia (- 1))))
        (not (<= (+ kidia (- 1)) _for_it_12_1))
        (not (<= _for_it_12_0 (+ kfdia (- 1))))
        (not (<= (+ kidia (- 1)) _for_it_12_0))
        (not (= (select _if_cond_1_val (- (+ _for_it_12_1 (* (+ _for_it_11 1) (- kfdia kidia)) 1) kidia)) 1))
        (not (= (select _if_cond_1_val (- (+ _for_it_12_0 (* _for_it_11 (- kfdia kidia)) 1) kidia)) 1))
      )
    )
    (forall ((_for_it_12_0 Int) (_for_it_12_1 Int))
      (or
        (not (<= _for_it_12_1 (+ kfdia (- 1))))
        (not (<= (+ kidia (- 1)) _for_it_12_1))
        (not (<= _for_it_12_0 (+ kfdia (- 1))))
        (not (<= (+ kidia (- 1)) _for_it_12_0))
        (not (= (- (+ _for_it_11 1) 1) (+ _for_it_11 1)))
        (not (= (- (+ _for_it_12_0 1) 1) _for_it_12_1))
        (not (= (select _if_cond_1_val (- (+ _for_it_12_1 (* (+ _for_it_11 1) (- kfdia kidia)) 1) kidia)) 1))
      )
    )
    (forall ((_for_it_12_0 Int) (_for_it_12_1 Int))
      (or
        (not (<= _for_it_12_1 (+ kfdia (- 1))))
        (not (<= (+ kidia (- 1)) _for_it_12_1))
        (not (= (- (+ _for_it_12_0 (* _for_it_11 (- kfdia kidia)) 1) kidia) (- (+ _for_it_12_1 (* (+ _for_it_11 1) (- kfdia kidia)) 1) kidia)))
        (not (<= _for_it_12_0 (+ kfdia (- 1))))
        (not (<= (+ kidia (- 1)) _for_it_12_0))
      )
    )
    (and
      (<= kidia (+ kfdia (- 1)))
      (<= 1 (+ klev (- 1)))
      (<= (+ _for_it_11 1) (+ klev (- 1)))
      (<= 0 _for_it_11)
    )
    (forall ((_for_it_12_0 Int) (_for_it_12_1 Int))
      (or
        (not (<= _for_it_12_1 (+ kfdia (- 1))))
        (not (<= (+ kidia (- 1)) _for_it_12_1))
        (not (= _for_it_12_0 _for_it_12_1))
        (not (= _for_it_11 (+ _for_it_11 1)))
        (not (<= _for_it_12_0 (+ kfdia (- 1))))
        (not (<= (+ kidia (- 1)) _for_it_12_0))
        (not (= (select _if_cond_1_val (- (+ _for_it_12_1 (* (+ _for_it_11 1) (- kfdia kidia)) 1) kidia)) 1))
        (not (= (select _if_cond_1_val (- (+ _for_it_12_0 (* _for_it_11 (- kfdia kidia)) 1) kidia)) 1))
      )
    )
    (forall ((_for_it_12_0 Int) (_for_it_12_1 Int))
      (or
        (not (<= _for_it_12_1 (+ kfdia (- 1))))
        (not (= _for_it_11 (- (+ _for_it_11 2) 1)))
        (not (<= (+ kidia (- 1)) _for_it_12_1))
        (not (= _for_it_12_0 (- (+ _for_it_12_1 1) 1)))
        (not (<= _for_it_12_0 (+ kfdia (- 1))))
        (not (<= (+ kidia (- 1)) _for_it_12_0))
        (not (= (select _if_cond_1_val (- (+ _for_it_12_0 (* _for_it_11 (- kfdia kidia)) 1) kidia)) 1))
      )
    )
  )
))

(check-sat)